p edge 20 48 10
v 2 5 14
v 1 11
v 1 12
v 2 4 16
v 1 15
v 4 1 6 17 19
v 2 3 18
v 2 2 8
v 1 7
v 4 9 10 13 20
e 1 5
e 1 9
e 1 10
e 1 18
e 2 3
e 2 4
e 2 6
e 2 8
e 2 11
e 2 12
e 2 14
e 3 8
e 3 12
e 3 13
e 3 14
e 4 5
e 4 7
e 4 9
e 4 17
e 5 7
e 5 16
e 6 15
e 6 20
e 7 12
e 7 20
e 8 9
e 8 10
e 8 20
e 9 12
e 9 16
e 9 17
e 9 19
e 9 20
e 10 12
e 10 16
e 10 20
e 11 14
e 11 19
e 12 14
e 12 17
e 12 20
e 13 20
e 14 20
e 15 17
e 16 19
e 16 20
e 18 19
e 19 20
